40 348
1 4 6 7 8 10 11 14 15 17 18 19 22 23 25 26 29 30 31 33 34 35 36 39
0 2 5 9 14 15 16 19 20 21 24 31 32 34 36
1 3 4 5 6 10 12 15 16 18 19 25 27 29 33 34 35 36 37 38
2 4 5 7 9 11 12 13 16 17 18 20 24 26 28 30 31 35 36 38
0 2 3 5 9 10 12 14 23 24 25 26 27 30 31 32 33 38
1 2 3 4 6 8 10 11 12 13 14 16 20 27 30 33 36 39
0 2 5 8 9 10 11 13 14 15 18 22 23 27 28 36 37
0 3 10 11 12 14 18 20 21 22 24 26 27 28 29 30 35 36 37
0 5 6 9 13 14 15 16 18 21 25 28 29 30 31 33 38
1 3 4 6 8 14 15 19 25 26 28 29 32 33 34 38
0 2 4 5 6 7 12 14 15 17 20 21 23 24 25 26 28 29 30 32 33 34 36 37 38 39
0 3 5 6 7 13 18 19 20 23 24 32 37 38
2 3 4 5 7 10 13 14 20 22 23 24 26 28 30 34 35 36
3 5 6 8 11 12 16 17 18 20 21 26 31 32 33 34 35 36 37
0 1 4 5 6 7 8 9 10 12 17 18 21 24 25 31 32 33 34
0 1 2 6 8 9 10 16 17 20 23 25 30 32 33 35 37 38 39
1 2 3 5 8 13 15 17 19 21 23 24 29 34 35 36 38
0 3 10 13 14 15 16 21 22 23 27 34
0 2 3 6 7 8 11 13 14 21 23 24 25 26 27 29 31 35 37 39
0 1 2 9 11 16 23 24 26 27 28 29 30 33
1 3 5 7 10 11 12 13 15 22 26 28 30 32 35 36 37 39
1 7 8 10 13 14 16 17 18 22 25 32 36 38
0 6 7 12 17 20 21 24 27 28 29 32 36 37 39
0 4 6 10 11 12 15 16 17 18 19 26 29 30 35 36 38 39
1 3 4 7 10 11 12 14 16 18 19 22 26 30 32
0 2 4 8 9 10 14 15 18 21 27 28 29 30 33 34 39
0 3 4 7 9 10 12 13 18 19 20 23 24 27 28 31 34 35 36 37 39
2 4 5 6 7 17 18 19 22 25 26 28 30 33 34 37 38 39
3 6 7 8 9 10 12 19 20 22 25 26 27 29 32 34 35 38
0 2 7 8 9 10 16 18 19 22 23 25 28 32 35 36 37
0 3 4 5 7 8 10 12 15 19 20 23 24 25 27 32 34
0 1 3 4 8 13 14 18 26 35
1 4 9 10 11 13 14 15 20 21 22 24 28 29 30 34 35 36 38
0 2 4 5 8 9 10 13 14 15 19 25 27 37
0 1 2 9 10 12 13 14 16 17 25 26 27 28 30 32 37
0 2 3 7 12 13 15 16 18 20 23 26 28 29 31 32 36 38 39
0 1 2 3 5 6 7 10 12 13 16 20 21 22 23 26 29 32 35 38 39
2 6 7 10 11 13 15 18 20 22 26 27 29 33 34 38
2 3 4 8 9 10 11 15 16 21 23 27 28 32 35 36 37
0 5 10 15 18 20 22 23 25 26 27 35 36
